n = 16;
lu = [|11, 157
      |-108, 236
      |105, 137
      |-200, 83
      |-243, -59
      |-127, 126
      |-94, 1
      |178, 228
      |-50, 256
      |-225, 160
      |-179, 193
      |30, 105
      |-149, 234
      |21, 196
      |-98, 71
      |-215, 226|];
